Maximize
 0
Subject To
 epc_0!1: -24.847032744092473 y_1!1_2!1 +46.98018013595373 y_1!2_2!1 -79.55112839754071 y_1!3_2!1 +2.4337846368437113 y_1!4_2!1 +64.27907444919708 y_1!5_2!1 -23.502897860457523 y_1!1_2!2 -37.72516613528174 y_1!2_2!2 +52.84554664475388 y_1!3_2!2 +99.40306584091482 y_1!4_2!2 -78.63568043538503 y_1!5_2!2 -18.648788487582024 y_1!1_2!3 -57.99447437326428 y_1!2_2!3 -28.405777158207385 y_1!3_2!3 -89.29153345647688 y_1!4_2!3 +82.48013434140887 y_1!5_2!3 +27.159695380202706 y_1!1_2!4 +85.43708068842776 y_1!2_2!4 +59.74821761470349 y_1!3_2!4 -29.10072845502127 y_1!4_2!4 +81.69440652238043 y_1!5_2!4 +1.2484057620213491 y_1!1_2!5 -61.58714008785531 y_1!2_2!5 -67.17749722910709 y_1!3_2!5 +83.49876545072797 y_1!4_2!5 -6.918122052178191 y_1!5_2!5 + lambda_0!1 - mu_0 = 0
 epc_0!2: -22.728100470224717 y_1!1_2!1 -58.72145653427226 y_1!2_2!1 -29.49378618879308 y_1!3_2!1 -22.359594036771924 y_1!4_2!1 -29.019695904780775 y_1!5_2!1 +29.047693752290883 y_1!1_2!2 -53.56253443620371 y_1!2_2!2 +89.22819715634509 y_1!3_2!2 -23.322018483740663 y_1!4_2!2 -88.5192356722488 y_1!5_2!2 -34.545216516788685 y_1!1_2!3 +19.750060527547447 y_1!2_2!3 +77.18021925641156 y_1!3_2!3 -42.195740702084535 y_1!4_2!3 -18.602329414815017 y_1!5_2!3 -95.45561097306089 y_1!1_2!4 -45.33126776579295 y_1!2_2!4 +15.985027441652576 y_1!3_2!4 +70.12742135313027 y_1!4_2!4 +80.64627619274523 y_1!5_2!4 +30.121492316975974 y_1!1_2!5 +24.087432890675586 y_1!2_2!5 +57.13642622809837 y_1!3_2!5 +83.57072342645208 y_1!4_2!5 -48.00570159098836 y_1!5_2!5 + lambda_0!2 - mu_0 = 0
 epc_0!3: +64.38774950790145 y_1!1_2!1 -72.21701241003571 y_1!2_2!1 +58.87063476039836 y_1!3_2!1 +10.149530922895948 y_1!4_2!1 +1.7023171911339432 y_1!5_2!1 -77.1109152228525 y_1!1_2!2 -33.9358412584279 y_1!2_2!2 +71.96375468322088 y_1!3_2!2 -78.12946555463401 y_1!4_2!2 -34.85088063633674 y_1!5_2!2 +31.215622581018124 y_1!1_2!3 -25.91725063438473 y_1!2_2!3 +20.539512929555997 y_1!3_2!3 +24.275801989581083 y_1!4_2!3 +59.6768529693382 y_1!5_2!3 -68.36676179821801 y_1!1_2!4 -37.36454125818967 y_1!2_2!4 -34.48703704598633 y_1!3_2!4 -12.690564203476981 y_1!4_2!4 +99.01581734991655 y_1!5_2!4 -63.286193072634255 y_1!1_2!5 +3.326504889269401 y_1!2_2!5 -77.53882822607692 y_1!3_2!5 +60.18392270371069 y_1!4_2!5 -53.8122970688665 y_1!5_2!5 + lambda_0!3 - mu_0 = 0
 epc_0!4: -11.46798794062505 y_1!1_2!1 +8.140203377191739 y_1!2_2!1 -35.61901506069583 y_1!3_2!1 +46.81737240423533 y_1!4_2!1 +63.784039060571246 y_1!5_2!1 +87.61834468345546 y_1!1_2!2 +3.8974573930631493 y_1!2_2!2 -29.5635756901425 y_1!3_2!2 -64.02541193345314 y_1!4_2!2 -89.82060909943237 y_1!5_2!2 +47.3152003137111 y_1!1_2!3 -37.228965174868755 y_1!2_2!3 +35.902921528627786 y_1!3_2!3 -4.875157345503652 y_1!4_2!3 -29.291384338241073 y_1!5_2!3 +26.047280884393274 y_1!1_2!4 +96.91188977146203 y_1!2_2!4 -48.80073528161666 y_1!3_2!4 +22.85436342422355 y_1!4_2!4 +52.174182200135874 y_1!5_2!4 +36.92494173535812 y_1!1_2!5 +43.41702434473655 y_1!2_2!5 -40.29582856288301 y_1!3_2!5 -8.537745180348395 y_1!4_2!5 +10.850035695819884 y_1!5_2!5 + lambda_0!4 - mu_0 = 0
 epc_0!5: +44.37060588885163 y_1!1_2!1 -42.11155839481815 y_1!2_2!1 -80.31397394773433 y_1!3_2!1 +76.57935723515499 y_1!4_2!1 -92.88212341627884 y_1!5_2!1 +81.89929584103604 y_1!1_2!2 -3.4818901762340175 y_1!2_2!2 +4.775056024080854 y_1!3_2!2 -93.58973854927757 y_1!4_2!2 +1.3780362311242271 y_1!5_2!2 +32.148020193934656 y_1!1_2!3 -52.68291543773718 y_1!2_2!3 -20.30350955011302 y_1!3_2!3 -31.465111870263044 y_1!4_2!3 +25.34429471709447 y_1!5_2!3 -37.23673726500698 y_1!1_2!4 -55.704761133573925 y_1!2_2!4 -93.74060557365182 y_1!3_2!4 -90.27770335475391 y_1!4_2!4 -28.9028944343316 y_1!5_2!4 -39.27868451321817 y_1!1_2!5 -83.31179162373807 y_1!2_2!5 +89.27774988164055 y_1!3_2!5 +42.99825833468597 y_1!4_2!5 +3.8344567105977063 y_1!5_2!5 + lambda_0!5 - mu_0 = 0
 dc_0: x_0!1 + x_0!2 + x_0!3 + x_0!4 + x_0!5 = 1
 bc_0!1: lambda_0!1 +297.48811555103464 x_0!1 <= 297.48811555103464
 bc_0!2: lambda_0!2 +297.48811555103464 x_0!2 <= 297.48811555103464
 bc_0!3: lambda_0!3 +297.48811555103464 x_0!3 <= 297.48811555103464
 bc_0!4: lambda_0!4 +297.48811555103464 x_0!4 <= 297.48811555103464
 bc_0!5: lambda_0!5 +297.48811555103464 x_0!5 <= 297.48811555103464
 sum_0!1: y_1!1_2!1 - x_1!1 - x_2!1 >= -1
 idk_0!1!1: y_1!1_2!1 - x_1!1 <= 0
 idk_0!1!2: y_1!1_2!1 - x_2!1 <= 0
 sum_0!2: y_1!2_2!1 - x_1!2 - x_2!1 >= -1
 idk_0!2!1: y_1!2_2!1 - x_1!2 <= 0
 idk_0!2!2: y_1!2_2!1 - x_2!1 <= 0
 sum_0!3: y_1!3_2!1 - x_1!3 - x_2!1 >= -1
 idk_0!3!1: y_1!3_2!1 - x_1!3 <= 0
 idk_0!3!2: y_1!3_2!1 - x_2!1 <= 0
 sum_0!4: y_1!4_2!1 - x_1!4 - x_2!1 >= -1
 idk_0!4!1: y_1!4_2!1 - x_1!4 <= 0
 idk_0!4!2: y_1!4_2!1 - x_2!1 <= 0
 sum_0!5: y_1!5_2!1 - x_1!5 - x_2!1 >= -1
 idk_0!5!1: y_1!5_2!1 - x_1!5 <= 0
 idk_0!5!2: y_1!5_2!1 - x_2!1 <= 0
 sum_0!6: y_1!1_2!2 - x_1!1 - x_2!2 >= -1
 idk_0!6!1: y_1!1_2!2 - x_1!1 <= 0
 idk_0!6!2: y_1!1_2!2 - x_2!2 <= 0
 sum_0!7: y_1!2_2!2 - x_1!2 - x_2!2 >= -1
 idk_0!7!1: y_1!2_2!2 - x_1!2 <= 0
 idk_0!7!2: y_1!2_2!2 - x_2!2 <= 0
 sum_0!8: y_1!3_2!2 - x_1!3 - x_2!2 >= -1
 idk_0!8!1: y_1!3_2!2 - x_1!3 <= 0
 idk_0!8!2: y_1!3_2!2 - x_2!2 <= 0
 sum_0!9: y_1!4_2!2 - x_1!4 - x_2!2 >= -1
 idk_0!9!1: y_1!4_2!2 - x_1!4 <= 0
 idk_0!9!2: y_1!4_2!2 - x_2!2 <= 0
 sum_0!10: y_1!5_2!2 - x_1!5 - x_2!2 >= -1
 idk_0!10!1: y_1!5_2!2 - x_1!5 <= 0
 idk_0!10!2: y_1!5_2!2 - x_2!2 <= 0
 sum_0!11: y_1!1_2!3 - x_1!1 - x_2!3 >= -1
 idk_0!11!1: y_1!1_2!3 - x_1!1 <= 0
 idk_0!11!2: y_1!1_2!3 - x_2!3 <= 0
 sum_0!12: y_1!2_2!3 - x_1!2 - x_2!3 >= -1
 idk_0!12!1: y_1!2_2!3 - x_1!2 <= 0
 idk_0!12!2: y_1!2_2!3 - x_2!3 <= 0
 sum_0!13: y_1!3_2!3 - x_1!3 - x_2!3 >= -1
 idk_0!13!1: y_1!3_2!3 - x_1!3 <= 0
 idk_0!13!2: y_1!3_2!3 - x_2!3 <= 0
 sum_0!14: y_1!4_2!3 - x_1!4 - x_2!3 >= -1
 idk_0!14!1: y_1!4_2!3 - x_1!4 <= 0
 idk_0!14!2: y_1!4_2!3 - x_2!3 <= 0
 sum_0!15: y_1!5_2!3 - x_1!5 - x_2!3 >= -1
 idk_0!15!1: y_1!5_2!3 - x_1!5 <= 0
 idk_0!15!2: y_1!5_2!3 - x_2!3 <= 0
 sum_0!16: y_1!1_2!4 - x_1!1 - x_2!4 >= -1
 idk_0!16!1: y_1!1_2!4 - x_1!1 <= 0
 idk_0!16!2: y_1!1_2!4 - x_2!4 <= 0
 sum_0!17: y_1!2_2!4 - x_1!2 - x_2!4 >= -1
 idk_0!17!1: y_1!2_2!4 - x_1!2 <= 0
 idk_0!17!2: y_1!2_2!4 - x_2!4 <= 0
 sum_0!18: y_1!3_2!4 - x_1!3 - x_2!4 >= -1
 idk_0!18!1: y_1!3_2!4 - x_1!3 <= 0
 idk_0!18!2: y_1!3_2!4 - x_2!4 <= 0
 sum_0!19: y_1!4_2!4 - x_1!4 - x_2!4 >= -1
 idk_0!19!1: y_1!4_2!4 - x_1!4 <= 0
 idk_0!19!2: y_1!4_2!4 - x_2!4 <= 0
 sum_0!20: y_1!5_2!4 - x_1!5 - x_2!4 >= -1
 idk_0!20!1: y_1!5_2!4 - x_1!5 <= 0
 idk_0!20!2: y_1!5_2!4 - x_2!4 <= 0
 sum_0!21: y_1!1_2!5 - x_1!1 - x_2!5 >= -1
 idk_0!21!1: y_1!1_2!5 - x_1!1 <= 0
 idk_0!21!2: y_1!1_2!5 - x_2!5 <= 0
 sum_0!22: y_1!2_2!5 - x_1!2 - x_2!5 >= -1
 idk_0!22!1: y_1!2_2!5 - x_1!2 <= 0
 idk_0!22!2: y_1!2_2!5 - x_2!5 <= 0
 sum_0!23: y_1!3_2!5 - x_1!3 - x_2!5 >= -1
 idk_0!23!1: y_1!3_2!5 - x_1!3 <= 0
 idk_0!23!2: y_1!3_2!5 - x_2!5 <= 0
 sum_0!24: y_1!4_2!5 - x_1!4 - x_2!5 >= -1
 idk_0!24!1: y_1!4_2!5 - x_1!4 <= 0
 idk_0!24!2: y_1!4_2!5 - x_2!5 <= 0
 sum_0!25: y_1!5_2!5 - x_1!5 - x_2!5 >= -1
 idk_0!25!1: y_1!5_2!5 - x_1!5 <= 0
 idk_0!25!2: y_1!5_2!5 - x_2!5 <= 0
 epc_1!1: -2.3445466413457723 y_0!1_2!1 -89.50122806577893 y_0!2_2!1 +69.82910761428812 y_0!3_2!1 +59.61048630965428 y_0!4_2!1 +63.679880956050425 y_0!5_2!1 -82.54804317084918 y_0!1_2!2 -42.63010318486382 y_0!2_2!2 -58.9776835451965 y_0!3_2!2 -28.996642185091574 y_0!4_2!2 -49.71381550743159 y_0!5_2!2 -78.03741910732072 y_0!1_2!3 -15.735835509028078 y_0!2_2!3 -31.717538544033914 y_0!3_2!3 +58.96128740951613 y_0!4_2!3 +19.033924701180922 y_0!5_2!3 +43.48792885370568 y_0!1_2!4 -10.462338636930554 y_0!2_2!4 +99.18978825771424 y_0!3_2!4 -1.4327145997443722 y_0!4_2!4 +80.71417900621452 y_0!5_2!4 -79.67608242617474 y_0!1_2!5 +86.07324603703321 y_0!2_2!5 +90.93257783449394 y_0!3_2!5 +27.555662475289438 y_0!4_2!5 +41.62933404723367 y_0!5_2!5 + lambda_1!1 - mu_1 = 0
 epc_1!2: +90.97985817077122 y_0!1_2!1 +72.98910796008181 y_0!2_2!1 -22.764493435652327 y_0!3_2!1 -3.565727952622993 y_0!4_2!1 +21.495111027214307 y_0!5_2!1 -23.15404427860868 y_0!1_2!2 -84.42378540623771 y_0!2_2!2 -62.96198481730973 y_0!3_2!2 -73.66229084599381 y_0!4_2!2 +83.25069821863457 y_0!5_2!2 +93.221400366426 y_0!1_2!3 -9.668602781446921 y_0!2_2!3 -4.385740885708486 y_0!3_2!3 +52.739689656399634 y_0!4_2!3 +16.02587028781508 y_0!5_2!3 -69.5116580937235 y_0!1_2!4 +39.94142144218651 y_0!2_2!4 -94.25171763146861 y_0!3_2!4 +34.11235016731041 y_0!4_2!4 +90.30966523496099 y_0!5_2!4 -75.75827952283443 y_0!1_2!5 +34.30866255648951 y_0!2_2!5 -1.7188641716029593 y_0!3_2!5 -12.702794842201044 y_0!4_2!5 -2.248169344779157 y_0!5_2!5 + lambda_1!2 - mu_1 = 0
 epc_1!3: -79.9150617146884 y_0!1_2!1 +30.371212371888703 y_0!2_2!1 -47.759787325939044 y_0!3_2!1 -45.56996353546256 y_0!4_2!1 -88.31265997880111 y_0!5_2!1 -26.36335689545362 y_0!1_2!2 -63.55152450330432 y_0!2_2!2 +86.06067629350295 y_0!3_2!2 -52.36657625970167 y_0!4_2!2 -81.88148009848408 y_0!5_2!2 -85.05372545189311 y_0!1_2!3 -46.20466554019369 y_0!2_2!3 +71.62312854317386 y_0!3_2!3 +56.911528205533045 y_0!4_2!3 +93.66110747544349 y_0!5_2!3 -31.116662713770296 y_0!1_2!4 +4.040643288539485 y_0!2_2!4 +89.13007239135914 y_0!3_2!4 -87.4535585181925 y_0!4_2!4 +24.391224247072614 y_0!5_2!4 -31.661676954519507 y_0!1_2!5 -34.69951856126545 y_0!2_2!5 +1.6002537958833045 y_0!3_2!5 +7.110251642690102 y_0!4_2!5 +45.446859534840655 y_0!5_2!5 + lambda_1!3 - mu_1 = 0
 epc_1!4: -61.9415671394989 y_0!1_2!1 +29.113339515728285 y_0!2_2!1 -13.310882966617172 y_0!3_2!1 -76.50089939399851 y_0!4_2!1 -3.7843793685303098 y_0!5_2!1 -61.998476777206115 y_0!1_2!2 +36.95102134622792 y_0!2_2!2 -45.9518693069892 y_0!3_2!2 +44.980168523237666 y_0!4_2!2 +49.5321049705868 y_0!5_2!2 -71.43671189316208 y_0!1_2!3 -98.29832729332037 y_0!2_2!3 -30.29376759116822 y_0!3_2!3 -83.63359958975971 y_0!4_2!3 -54.45811312672531 y_0!5_2!3 -72.0660935297031 y_0!1_2!4 -5.605616993883274 y_0!2_2!4 +93.2053367194768 y_0!3_2!4 +62.23939569124394 y_0!4_2!4 -35.88853232958611 y_0!5_2!4 -82.34050442465706 y_0!1_2!5 -15.732242165428545 y_0!2_2!5 -63.60678453079562 y_0!3_2!5 +47.120301524733776 y_0!4_2!5 -72.19832114789355 y_0!5_2!5 + lambda_1!4 - mu_1 = 0
 epc_1!5: -3.781097251994737 y_0!1_2!1 +49.73492298210547 y_0!2_2!1 -22.514884247139562 y_0!3_2!1 -55.09836184005228 y_0!4_2!1 -58.18112208025041 y_0!5_2!1 +28.07917759021288 y_0!1_2!2 +56.57188946030482 y_0!2_2!2 +67.86184011689195 y_0!3_2!2 -45.89582817922695 y_0!4_2!2 -88.44840146564755 y_0!5_2!2 +78.02108753393475 y_0!1_2!3 -30.68629984476354 y_0!2_2!3 -20.590692717959698 y_0!3_2!3 -80.10010773906986 y_0!4_2!3 -42.972845491065485 y_0!5_2!3 -49.557493217583 y_0!1_2!4 +97.95745621023212 y_0!2_2!4 +41.95773830722055 y_0!3_2!4 +74.52750204153332 y_0!4_2!4 -69.84632712285932 y_0!5_2!4 -52.6088843210814 y_0!1_2!5 -17.223684455203852 y_0!2_2!5 -42.883760262405104 y_0!3_2!5 -45.34344823271781 y_0!4_2!5 +59.85780842071347 y_0!5_2!5 + lambda_1!5 - mu_1 = 0
 dc_1: x_1!1 + x_1!2 + x_1!3 + x_1!4 + x_1!5 = 1
 bc_1!1: lambda_1!1 +297.48811555103464 x_1!1 <= 297.48811555103464
 bc_1!2: lambda_1!2 +297.48811555103464 x_1!2 <= 297.48811555103464
 bc_1!3: lambda_1!3 +297.48811555103464 x_1!3 <= 297.48811555103464
 bc_1!4: lambda_1!4 +297.48811555103464 x_1!4 <= 297.48811555103464
 bc_1!5: lambda_1!5 +297.48811555103464 x_1!5 <= 297.48811555103464
 sum_1!1: y_0!1_2!1 - x_0!1 - x_2!1 >= -1
 idk_1!1!0: y_0!1_2!1 - x_0!1 <= 0
 idk_1!1!2: y_0!1_2!1 - x_2!1 <= 0
 sum_1!2: y_0!2_2!1 - x_0!2 - x_2!1 >= -1
 idk_1!2!0: y_0!2_2!1 - x_0!2 <= 0
 idk_1!2!2: y_0!2_2!1 - x_2!1 <= 0
 sum_1!3: y_0!3_2!1 - x_0!3 - x_2!1 >= -1
 idk_1!3!0: y_0!3_2!1 - x_0!3 <= 0
 idk_1!3!2: y_0!3_2!1 - x_2!1 <= 0
 sum_1!4: y_0!4_2!1 - x_0!4 - x_2!1 >= -1
 idk_1!4!0: y_0!4_2!1 - x_0!4 <= 0
 idk_1!4!2: y_0!4_2!1 - x_2!1 <= 0
 sum_1!5: y_0!5_2!1 - x_0!5 - x_2!1 >= -1
 idk_1!5!0: y_0!5_2!1 - x_0!5 <= 0
 idk_1!5!2: y_0!5_2!1 - x_2!1 <= 0
 sum_1!6: y_0!1_2!2 - x_0!1 - x_2!2 >= -1
 idk_1!6!0: y_0!1_2!2 - x_0!1 <= 0
 idk_1!6!2: y_0!1_2!2 - x_2!2 <= 0
 sum_1!7: y_0!2_2!2 - x_0!2 - x_2!2 >= -1
 idk_1!7!0: y_0!2_2!2 - x_0!2 <= 0
 idk_1!7!2: y_0!2_2!2 - x_2!2 <= 0
 sum_1!8: y_0!3_2!2 - x_0!3 - x_2!2 >= -1
 idk_1!8!0: y_0!3_2!2 - x_0!3 <= 0
 idk_1!8!2: y_0!3_2!2 - x_2!2 <= 0
 sum_1!9: y_0!4_2!2 - x_0!4 - x_2!2 >= -1
 idk_1!9!0: y_0!4_2!2 - x_0!4 <= 0
 idk_1!9!2: y_0!4_2!2 - x_2!2 <= 0
 sum_1!10: y_0!5_2!2 - x_0!5 - x_2!2 >= -1
 idk_1!10!0: y_0!5_2!2 - x_0!5 <= 0
 idk_1!10!2: y_0!5_2!2 - x_2!2 <= 0
 sum_1!11: y_0!1_2!3 - x_0!1 - x_2!3 >= -1
 idk_1!11!0: y_0!1_2!3 - x_0!1 <= 0
 idk_1!11!2: y_0!1_2!3 - x_2!3 <= 0
 sum_1!12: y_0!2_2!3 - x_0!2 - x_2!3 >= -1
 idk_1!12!0: y_0!2_2!3 - x_0!2 <= 0
 idk_1!12!2: y_0!2_2!3 - x_2!3 <= 0
 sum_1!13: y_0!3_2!3 - x_0!3 - x_2!3 >= -1
 idk_1!13!0: y_0!3_2!3 - x_0!3 <= 0
 idk_1!13!2: y_0!3_2!3 - x_2!3 <= 0
 sum_1!14: y_0!4_2!3 - x_0!4 - x_2!3 >= -1
 idk_1!14!0: y_0!4_2!3 - x_0!4 <= 0
 idk_1!14!2: y_0!4_2!3 - x_2!3 <= 0
 sum_1!15: y_0!5_2!3 - x_0!5 - x_2!3 >= -1
 idk_1!15!0: y_0!5_2!3 - x_0!5 <= 0
 idk_1!15!2: y_0!5_2!3 - x_2!3 <= 0
 sum_1!16: y_0!1_2!4 - x_0!1 - x_2!4 >= -1
 idk_1!16!0: y_0!1_2!4 - x_0!1 <= 0
 idk_1!16!2: y_0!1_2!4 - x_2!4 <= 0
 sum_1!17: y_0!2_2!4 - x_0!2 - x_2!4 >= -1
 idk_1!17!0: y_0!2_2!4 - x_0!2 <= 0
 idk_1!17!2: y_0!2_2!4 - x_2!4 <= 0
 sum_1!18: y_0!3_2!4 - x_0!3 - x_2!4 >= -1
 idk_1!18!0: y_0!3_2!4 - x_0!3 <= 0
 idk_1!18!2: y_0!3_2!4 - x_2!4 <= 0
 sum_1!19: y_0!4_2!4 - x_0!4 - x_2!4 >= -1
 idk_1!19!0: y_0!4_2!4 - x_0!4 <= 0
 idk_1!19!2: y_0!4_2!4 - x_2!4 <= 0
 sum_1!20: y_0!5_2!4 - x_0!5 - x_2!4 >= -1
 idk_1!20!0: y_0!5_2!4 - x_0!5 <= 0
 idk_1!20!2: y_0!5_2!4 - x_2!4 <= 0
 sum_1!21: y_0!1_2!5 - x_0!1 - x_2!5 >= -1
 idk_1!21!0: y_0!1_2!5 - x_0!1 <= 0
 idk_1!21!2: y_0!1_2!5 - x_2!5 <= 0
 sum_1!22: y_0!2_2!5 - x_0!2 - x_2!5 >= -1
 idk_1!22!0: y_0!2_2!5 - x_0!2 <= 0
 idk_1!22!2: y_0!2_2!5 - x_2!5 <= 0
 sum_1!23: y_0!3_2!5 - x_0!3 - x_2!5 >= -1
 idk_1!23!0: y_0!3_2!5 - x_0!3 <= 0
 idk_1!23!2: y_0!3_2!5 - x_2!5 <= 0
 sum_1!24: y_0!4_2!5 - x_0!4 - x_2!5 >= -1
 idk_1!24!0: y_0!4_2!5 - x_0!4 <= 0
 idk_1!24!2: y_0!4_2!5 - x_2!5 <= 0
 sum_1!25: y_0!5_2!5 - x_0!5 - x_2!5 >= -1
 idk_1!25!0: y_0!5_2!5 - x_0!5 <= 0
 idk_1!25!2: y_0!5_2!5 - x_2!5 <= 0
 epc_2!1: -12.919640815781591 y_0!1_1!1 +48.6308686288001 y_0!2_1!1 +74.35328214048067 y_0!3_1!1 -62.129589712606915 y_0!4_1!1 +40.860844351499736 y_0!5_1!1 +84.1618188446389 y_0!1_1!2 -37.467946928053394 y_0!2_1!2 -94.82304426104737 y_0!3_1!2 +56.299893839851535 y_0!4_1!2 +72.66104339033842 y_0!5_1!2 -16.334142586001946 y_0!1_1!3 -90.73122449029154 y_0!2_1!3 -61.69765735653869 y_0!3_1!3 +91.37941961046792 y_0!4_1!3 +94.59152246215044 y_0!5_1!3 +68.33167784227265 y_0!1_1!4 +2.901913712949437 y_0!2_1!4 +85.26240398986974 y_0!3_1!4 +6.763201995515061 y_0!4_1!4 +85.28076396527797 y_0!5_1!4 -61.17021355044348 y_0!1_1!5 -16.33721397652235 y_0!2_1!5 +10.412992465794744 y_0!3_1!5 -34.413256265369114 y_0!4_1!5 -50.924702849249215 y_0!5_1!5 + lambda_2!1 - mu_2 = 0
 epc_2!2: -80.00065160716679 y_0!1_1!1 -62.14412653187058 y_0!2_1!1 -57.26730430867835 y_0!3_1!1 -32.45019068673649 y_0!4_1!1 +26.083831154735066 y_0!5_1!1 +1.382094492169088 y_0!1_1!2 +0.6992802701979883 y_0!2_1!2 +62.56643331832373 y_0!3_1!2 -43.37232147929693 y_0!4_1!2 +54.65667708784056 y_0!5_1!2 +88.5408024984462 y_0!1_1!3 -0.8002149532528193 y_0!2_1!3 +76.97913093881806 y_0!3_1!3 -16.227726417325286 y_0!4_1!3 +21.52836451387587 y_0!5_1!3 +36.69155107409745 y_0!1_1!4 -81.56978576566136 y_0!2_1!4 +35.07818757371885 y_0!3_1!4 -43.49945135839606 y_0!4_1!4 -15.080794266960112 y_0!5_1!4 +70.47232484204582 y_0!1_1!5 -68.36507645255823 y_0!2_1!5 +15.975990823685265 y_0!3_1!5 -64.45321239991186 y_0!4_1!5 -61.83185850984829 y_0!5_1!5 + lambda_2!2 - mu_2 = 0
 epc_2!3: +18.620178254480507 y_0!1_1!1 -83.7535620539142 y_0!2_1!1 -81.17185185605003 y_0!3_1!1 -54.653398539963675 y_0!4_1!1 +10.238819190710615 y_0!5_1!1 -70.91718585693269 y_0!1_1!2 +16.134765820724326 y_0!2_1!2 +10.616845542206605 y_0!3_1!2 -13.33422105429824 y_0!4_1!2 -25.14907864275571 y_0!5_1!2 -18.868357316384035 y_0!1_1!3 +63.23602625069884 y_0!2_1!3 -90.72235050965291 y_0!3_1!3 -93.2525284010436 y_0!4_1!3 -10.87355259099732 y_0!5_1!3 -0.34506687529025726 y_0!1_1!4 +85.9050148037264 y_0!2_1!4 -98.46875387464848 y_0!3_1!4 -55.53133565474986 y_0!4_1!4 +9.104496175918399 y_0!5_1!4 -74.93567180806717 y_0!1_1!5 -78.46187568600254 y_0!2_1!5 +29.976936536563755 y_0!3_1!5 +17.875261543229342 y_0!4_1!5 -30.895388394505986 y_0!5_1!5 + lambda_2!3 - mu_2 = 0
 epc_2!4: +55.93295447160412 y_0!1_1!1 +80.2245046566932 y_0!2_1!1 -83.01899455764925 y_0!3_1!1 -9.06911580731591 y_0!4_1!1 -13.934896514848916 y_0!5_1!1 -97.88590495626568 y_0!1_1!2 +46.68667711898598 y_0!2_1!2 +77.44267946720751 y_0!3_1!2 +50.45879993098987 y_0!4_1!2 +51.52526049360148 y_0!5_1!2 -86.07996159297704 y_0!1_1!3 -94.94730390750925 y_0!2_1!3 +9.383271344621377 y_0!3_1!3 +3.9186337553126265 y_0!4_1!3 -85.12477719997412 y_0!5_1!3 +38.62712915862875 y_0!1_1!4 +27.111808589537503 y_0!2_1!4 -70.36676401120936 y_0!3_1!4 -74.84421573102912 y_0!4_1!4 +54.91575258792392 y_0!5_1!4 +1.8929855256981938 y_0!1_1!5 +1.2144586617570496 y_0!2_1!5 +3.5935605969852134 y_0!3_1!5 +5.016503061378728 y_0!4_1!5 -20.678733177290525 y_0!5_1!5 + lambda_2!4 - mu_2 = 0
 epc_2!5: -79.53807959913199 y_0!1_1!1 -66.58101783797173 y_0!2_1!1 -12.354256680361033 y_0!3_1!1 -15.79169423834486 y_0!4_1!1 -43.01198433229105 y_0!5_1!1 +95.74739696946358 y_0!1_1!2 +5.962019793734427 y_0!2_1!2 -0.7796387376565406 y_0!3_1!2 +37.929396285205854 y_0!4_1!2 +35.385074878721554 y_0!5_1!2 +25.41772890424734 y_0!1_1!3 +5.46122862228269 y_0!2_1!3 -79.94458886260682 y_0!3_1!3 +37.74760168641836 y_0!4_1!3 +38.58953690204066 y_0!5_1!3 -19.155772733072055 y_0!1_1!4 +10.868839340271833 y_0!2_1!4 +88.22249027119759 y_0!3_1!4 -24.83488421506992 y_0!4_1!4 -73.48923942044894 y_0!5_1!4 -15.603979353610356 y_0!1_1!5 -68.40319320351765 y_0!2_1!5 +71.24021723018393 y_0!3_1!5 -40.28283112447926 y_0!4_1!5 -39.785072980534196 y_0!5_1!5 + lambda_2!5 - mu_2 = 0
 dc_2: x_2!1 + x_2!2 + x_2!3 + x_2!4 + x_2!5 = 1
 bc_2!1: lambda_2!1 +297.48811555103464 x_2!1 <= 297.48811555103464
 bc_2!2: lambda_2!2 +297.48811555103464 x_2!2 <= 297.48811555103464
 bc_2!3: lambda_2!3 +297.48811555103464 x_2!3 <= 297.48811555103464
 bc_2!4: lambda_2!4 +297.48811555103464 x_2!4 <= 297.48811555103464
 bc_2!5: lambda_2!5 +297.48811555103464 x_2!5 <= 297.48811555103464
 sum_2!1: y_0!1_1!1 - x_0!1 - x_1!1 >= -1
 idk_2!1!0: y_0!1_1!1 - x_0!1 <= 0
 idk_2!1!1: y_0!1_1!1 - x_1!1 <= 0
 sum_2!2: y_0!2_1!1 - x_0!2 - x_1!1 >= -1
 idk_2!2!0: y_0!2_1!1 - x_0!2 <= 0
 idk_2!2!1: y_0!2_1!1 - x_1!1 <= 0
 sum_2!3: y_0!3_1!1 - x_0!3 - x_1!1 >= -1
 idk_2!3!0: y_0!3_1!1 - x_0!3 <= 0
 idk_2!3!1: y_0!3_1!1 - x_1!1 <= 0
 sum_2!4: y_0!4_1!1 - x_0!4 - x_1!1 >= -1
 idk_2!4!0: y_0!4_1!1 - x_0!4 <= 0
 idk_2!4!1: y_0!4_1!1 - x_1!1 <= 0
 sum_2!5: y_0!5_1!1 - x_0!5 - x_1!1 >= -1
 idk_2!5!0: y_0!5_1!1 - x_0!5 <= 0
 idk_2!5!1: y_0!5_1!1 - x_1!1 <= 0
 sum_2!6: y_0!1_1!2 - x_0!1 - x_1!2 >= -1
 idk_2!6!0: y_0!1_1!2 - x_0!1 <= 0
 idk_2!6!1: y_0!1_1!2 - x_1!2 <= 0
 sum_2!7: y_0!2_1!2 - x_0!2 - x_1!2 >= -1
 idk_2!7!0: y_0!2_1!2 - x_0!2 <= 0
 idk_2!7!1: y_0!2_1!2 - x_1!2 <= 0
 sum_2!8: y_0!3_1!2 - x_0!3 - x_1!2 >= -1
 idk_2!8!0: y_0!3_1!2 - x_0!3 <= 0
 idk_2!8!1: y_0!3_1!2 - x_1!2 <= 0
 sum_2!9: y_0!4_1!2 - x_0!4 - x_1!2 >= -1
 idk_2!9!0: y_0!4_1!2 - x_0!4 <= 0
 idk_2!9!1: y_0!4_1!2 - x_1!2 <= 0
 sum_2!10: y_0!5_1!2 - x_0!5 - x_1!2 >= -1
 idk_2!10!0: y_0!5_1!2 - x_0!5 <= 0
 idk_2!10!1: y_0!5_1!2 - x_1!2 <= 0
 sum_2!11: y_0!1_1!3 - x_0!1 - x_1!3 >= -1
 idk_2!11!0: y_0!1_1!3 - x_0!1 <= 0
 idk_2!11!1: y_0!1_1!3 - x_1!3 <= 0
 sum_2!12: y_0!2_1!3 - x_0!2 - x_1!3 >= -1
 idk_2!12!0: y_0!2_1!3 - x_0!2 <= 0
 idk_2!12!1: y_0!2_1!3 - x_1!3 <= 0
 sum_2!13: y_0!3_1!3 - x_0!3 - x_1!3 >= -1
 idk_2!13!0: y_0!3_1!3 - x_0!3 <= 0
 idk_2!13!1: y_0!3_1!3 - x_1!3 <= 0
 sum_2!14: y_0!4_1!3 - x_0!4 - x_1!3 >= -1
 idk_2!14!0: y_0!4_1!3 - x_0!4 <= 0
 idk_2!14!1: y_0!4_1!3 - x_1!3 <= 0
 sum_2!15: y_0!5_1!3 - x_0!5 - x_1!3 >= -1
 idk_2!15!0: y_0!5_1!3 - x_0!5 <= 0
 idk_2!15!1: y_0!5_1!3 - x_1!3 <= 0
 sum_2!16: y_0!1_1!4 - x_0!1 - x_1!4 >= -1
 idk_2!16!0: y_0!1_1!4 - x_0!1 <= 0
 idk_2!16!1: y_0!1_1!4 - x_1!4 <= 0
 sum_2!17: y_0!2_1!4 - x_0!2 - x_1!4 >= -1
 idk_2!17!0: y_0!2_1!4 - x_0!2 <= 0
 idk_2!17!1: y_0!2_1!4 - x_1!4 <= 0
 sum_2!18: y_0!3_1!4 - x_0!3 - x_1!4 >= -1
 idk_2!18!0: y_0!3_1!4 - x_0!3 <= 0
 idk_2!18!1: y_0!3_1!4 - x_1!4 <= 0
 sum_2!19: y_0!4_1!4 - x_0!4 - x_1!4 >= -1
 idk_2!19!0: y_0!4_1!4 - x_0!4 <= 0
 idk_2!19!1: y_0!4_1!4 - x_1!4 <= 0
 sum_2!20: y_0!5_1!4 - x_0!5 - x_1!4 >= -1
 idk_2!20!0: y_0!5_1!4 - x_0!5 <= 0
 idk_2!20!1: y_0!5_1!4 - x_1!4 <= 0
 sum_2!21: y_0!1_1!5 - x_0!1 - x_1!5 >= -1
 idk_2!21!0: y_0!1_1!5 - x_0!1 <= 0
 idk_2!21!1: y_0!1_1!5 - x_1!5 <= 0
 sum_2!22: y_0!2_1!5 - x_0!2 - x_1!5 >= -1
 idk_2!22!0: y_0!2_1!5 - x_0!2 <= 0
 idk_2!22!1: y_0!2_1!5 - x_1!5 <= 0
 sum_2!23: y_0!3_1!5 - x_0!3 - x_1!5 >= -1
 idk_2!23!0: y_0!3_1!5 - x_0!3 <= 0
 idk_2!23!1: y_0!3_1!5 - x_1!5 <= 0
 sum_2!24: y_0!4_1!5 - x_0!4 - x_1!5 >= -1
 idk_2!24!0: y_0!4_1!5 - x_0!4 <= 0
 idk_2!24!1: y_0!4_1!5 - x_1!5 <= 0
 sum_2!25: y_0!5_1!5 - x_0!5 - x_1!5 >= -1
 idk_2!25!0: y_0!5_1!5 - x_0!5 <= 0
 idk_2!25!1: y_0!5_1!5 - x_1!5 <= 0
Bounds
 mu_0 free
 mu_1 free
 mu_2 free
Binary
 x_0!1 x_0!2 x_0!3 x_0!4 x_0!5 x_1!1 x_1!2 x_1!3 x_1!4 x_1!5 x_2!1 x_2!2 x_2!3 x_2!4 x_2!5
End
